100 1000
3 58
79 99
97 96
24 64
10 28
55 29
95 43
41 35
67 2
28 30
14 86
11 56
86 27
50 9
63 85
69 13
39 65
62 46
10 51
49 31
22 99
88 56
60 97
7 11
9 65
34 63
8 67
80 6
17 80
71 84
55 85
17 49
9 71
32 95
26 72
18 58
21 23
86 48
47 14
55 89
61 100
94 85
16 53
54 27
84 58
100 50
11 68
87 70
57 81
85 66
45 88
18 43
61 57
89 31
39 77
29 3
7 10
77 26
4 62
47 87
67 97
62 32
29 17
66 100
47 26
28 66
95 9
66 24
13 19
72 90
21 74
60 98
87 92
27 36
66 28
36 58
93 29
56 38
12 32
31 99
55 2
6 88
36 58
97 7
61 24
88 93
71 77
68 86
49 69
23 84
64 95
52 83
40 51
19 96
87 22
81 98
41 61
71 13
32 99
72 68
